249
9
252
29
189
203
12
255
99
249
111
115
96
209
44
196
269
9
52
168
57
243
194
12
160
57
213
44
185
254
158
3
124
24
56
265
91
255
220
110
82
98
97
40
11
186
21
223
200
25
32
135
129
151
174
133
201
70
114
46
170
223
144
51
122
239
61
74
142
249
60
177
10
116
58
126
176
109
136
134
109
5
136
215
175
193
162
187
177
6
154
124
138
185
218
168
157
75
67
261
